*SENSE:Maximize
NAME          MODEL
ROWS
 N  OBJ
 G  C0000000
 G  C0000001
 G  C0000002
 G  C0000003
 G  C0000004
 G  C0000005
 G  C0000006
 G  C0000007
 G  C0000008
 G  C0000009
COLUMNS
    X0000001  C0000000   1.000000000000e+00
    X0000001  C0000001   4.000000000000e+00
    X0000001  C0000002   1.000000000000e+00
    X0000001  C0000003   1.000000000000e+00
    X0000001  C0000005   1.000000000000e+00
    X0000001  C0000006   4.000000000000e+00
    X0000001  C0000007   1.000000000000e+00
    X0000001  C0000008   1.000000000000e+00
    X0000001  C0000000   1.000000000000e+00
    X0000001  C0000001   4.000000000000e+00
    X0000001  C0000002   1.000000000000e+00
    X0000001  C0000003   1.000000000000e+00
    X0000001  C0000005   1.000000000000e+00
    X0000001  C0000006   4.000000000000e+00
    X0000001  C0000007   1.000000000000e+00
    X0000001  C0000008   1.000000000000e+00
    X0000001  OBJ        1.250000000000e+00
    X0000003  C0000000   2.000000000000e+00
    X0000003  C0000001   3.000000000000e+00
    X0000003  C0000002   1.000000000000e+00
    X0000003  C0000004   1.000000000000e+00
    X0000003  C0000005   2.000000000000e+00
    X0000003  C0000006   3.000000000000e+00
    X0000003  C0000007   1.000000000000e+00
    X0000003  C0000009   1.000000000000e+00
    X0000003  C0000000   2.000000000000e+00
    X0000003  C0000001   3.000000000000e+00
    X0000003  C0000002   1.000000000000e+00
    X0000003  C0000004   1.000000000000e+00
    X0000003  C0000005   2.000000000000e+00
    X0000003  C0000006   3.000000000000e+00
    X0000003  C0000007   1.000000000000e+00
    X0000003  C0000009   1.000000000000e+00
    X0000003  OBJ        1.890000000000e+00
RHS
    RHS       C0000000   3.000000000000e+02
    RHS       C0000001   7.000000000000e+02
    RHS       C0000002   2.300000000000e+02
    RHS       C0000003   0.000000000000e+00
    RHS       C0000004   0.000000000000e+00
    RHS       C0000005   3.000000000000e+02
    RHS       C0000006   7.000000000000e+02
    RHS       C0000007   2.300000000000e+02
    RHS       C0000008   0.000000000000e+00
    RHS       C0000009   0.000000000000e+00
BOUNDS
ENDATA
